(set-info :source |printed by MathSAT|)
(declare-fun flby.next () Bool)
(declare-fun a () Bool)
(declare-fun b () Bool)
(declare-fun b.next () Bool)
(declare-fun _OK_.next () Bool)
(declare-fun flby3 () Bool)
(declare-fun flby3.next () Bool)
(declare-fun _OK_ () Bool)
(declare-fun c () Bool)
(declare-fun c.next () Bool)
(declare-fun flby2 () Bool)
(declare-fun flby () Bool)
(declare-fun flby2.next () Bool)
(declare-fun a.next () Bool)
(define-fun .def_115 () Bool (= flby3.next c.next))
(define-fun .def_113 () Bool (= flby2.next b.next))
(define-fun .def_110 () Bool (= flby.next a.next))
(define-fun .def_107 () Bool (and a.next c.next))
(define-fun .def_108 () Bool (not .def_107))
(define-fun .def_109 () Bool (= _OK_.next .def_108))
(define-fun .def_111 () Bool (and .def_109 .def_110))
(define-fun .def_114 () Bool (and .def_111 .def_113))
(define-fun .def_116 () Bool (and .def_114 .def_115))
(define-fun .def_78 () Bool (= c flby3))
(define-fun .def_75 () Bool (= b flby2))
(define-fun .def_71 () Bool (= a flby))
(define-fun .def_67 () Bool (and a c))
(define-fun .def_68 () Bool (not .def_67))
(define-fun .def_69 () Bool (= _OK_ .def_68))
(define-fun .def_72 () Bool (and .def_69 .def_71))
(define-fun .def_76 () Bool (and .def_72 .def_75))
(define-fun .def_79 () Bool (and .def_76 .def_78))
(define-fun .def_117 () Bool (and .def_79 .def_116))
(define-fun .def_90 () Bool (not a))
(define-fun .def_99 () Bool (and c .def_90))
(define-fun .def_98 () Bool (and a b))
(define-fun .def_100 () Bool (or .def_98 .def_99))
(define-fun .def_102 () Bool (= .def_100 flby3.next))
(define-fun .def_96 () Bool (= .def_90 flby.next))
(define-fun .def_91 () Bool (and b .def_90))
(define-fun .def_87 () Bool (not b))
(define-fun .def_86 () Bool (not c))
(define-fun .def_88 () Bool (and .def_86 .def_87))
(define-fun .def_89 () Bool (and a .def_88))
(define-fun .def_92 () Bool (or .def_89 .def_91))
(define-fun .def_94 () Bool (= .def_92 flby2.next))
(define-fun .def_97 () Bool (and .def_94 .def_96))
(define-fun .def_103 () Bool (and .def_97 .def_102))
(define-fun .def_118 () Bool (and .def_103 .def_117))
(assert .def_118)
